SAT/3522457_21.param
$ LBS instance with n = 21, seed = 3522457
letting cards be [18,31,50,51,5,35,20,17,33,49,8,12,29,37,28,11,42,4,46,38,6]
